
Gurobi 9.1.2 (linux64) logging started Wed Nov 24 10:27:07 2021

Changed value of parameter LogFile to lemke_square_v-(5, 7).log-s20-l10.log
   Prev:   Default: 
Changed value of parameter Threads to 32
   Prev: 0  Min: 0  Max: 1024  Default: 0
Changed value of parameter TimeLimit to 3600.0
   Prev: inf  Min: 0.0  Max: inf  Default: inf
Changed value of parameter MIPGap to 0.4
   Prev: 0.0001  Min: 0.0  Max: inf  Default: 0.0001
Warning: variable name "X[(7, 4),(7, 3)]" has a space
Warning: constraint name "flow-constr-t0-v(3, 0)" has a space
Warning: to let Gurobi read it back, use rlp format
Gurobi Optimizer version 9.1.2 build v9.1.2rc0 (linux64)
Thread count: 16 physical cores, 32 logical processors, using up to 32 threads
Optimize a model with 6013 rows, 5440 columns and 20670 nonzeros
Model fingerprint: 0x949f71f0
Variable types: 0 continuous, 5440 integer (4800 binary)
Coefficient statistics:
  Matrix range     [1e+00, 1e+03]
  Objective range  [1e-01, 1e-01]
  Bounds range     [1e+00, 5e+02]
  RHS range        [1e+00, 1e+03]
Presolve removed 547 rows and 580 columns
Presolve time: 0.04s
Presolved: 5466 rows, 4860 columns, 18150 nonzeros
Variable types: 0 continuous, 4860 integer (4220 binary)

Root relaxation: objective 6.400000e+01, 127 iterations, 0.00 seconds

    Nodes    |    Current Node    |     Objective Bounds      |     Work
 Expl Unexpl |  Obj  Depth IntInf | Incumbent    BestBd   Gap | It/Node Time

     0     0   64.00000    0   44          -   64.00000      -     -    0s
     0     0   64.00000    0  110          -   64.00000      -     -    0s
     0     0   64.00000    0  110          -   64.00000      -     -    0s
     0     0   64.00000    0   54          -   64.00000      -     -    0s
H    0     0                    3774.6000000   64.00000  98.3%     -    0s
     0     0   64.00000    0   54 3774.60000   64.00000  98.3%     -    0s
H    0     0                     228.0000000   64.00000  71.9%     -    0s
H    0     2                     223.3000000   64.00000  71.3%     -    0s
     0     2   64.00000    0   46  223.30000   64.00000  71.3%     -    0s
H   29    56                     159.2000000   64.00000  59.8%  58.7    1s
H   30    56                     142.0000000   64.00000  54.9%  59.0    1s
H   36    56                     140.6000000   64.00000  54.5%  61.2    1s
H   49    56                     138.0000000   64.00000  53.6%  63.6    1s
H   55    56                     135.6000000   64.00000  52.8%  64.2    1s

Cutting planes:
  Gomory: 15
  Cover: 144
  Implied bound: 121
  Clique: 7
  MIR: 49
  Flow cover: 20
  Mod-K: 1
  RLT: 6
  Relax-and-lift: 50

Explored 57 nodes (5456 simplex iterations) in 1.39 seconds
Thread count was 32 (of 32 available processors)

Solution count 8: 135.6 138 140.6 ... 3774.6

Solve interrupted
Best objective 1.356000000000e+02, best bound 6.400000000000e+01, gap 52.8024%

Gurobi 9.1.2 (linux64) logging started Wed Nov 24 10:32:27 2021

Changed value of parameter LogFile to lemke_square_v-(5, 7).log-s20-l10.log
   Prev:   Default: 
Changed value of parameter Threads to 32
   Prev: 0  Min: 0  Max: 1024  Default: 0
Changed value of parameter TimeLimit to 3600.0
   Prev: inf  Min: 0.0  Max: inf  Default: inf
Changed value of parameter MIPGap to 0.4
   Prev: 0.0001  Min: 0.0  Max: inf  Default: 0.0001
Warning: variable name "X[(7, 4),(7, 3)]" has a space
Warning: constraint name "flow-constr-t0-v(3, 0)" has a space
Warning: to let Gurobi read it back, use rlp format
Gurobi Optimizer version 9.1.2 build v9.1.2rc0 (linux64)
Thread count: 16 physical cores, 32 logical processors, using up to 32 threads
Optimize a model with 6013 rows, 5440 columns and 20670 nonzeros
Model fingerprint: 0x949f71f0
Variable types: 0 continuous, 5440 integer (4800 binary)
Coefficient statistics:
  Matrix range     [1e+00, 1e+03]
  Objective range  [1e-01, 1e-01]
  Bounds range     [1e+00, 5e+02]
  RHS range        [1e+00, 1e+03]
Presolve removed 547 rows and 580 columns
Presolve time: 0.03s
Presolved: 5466 rows, 4860 columns, 18150 nonzeros
Variable types: 0 continuous, 4860 integer (4220 binary)

Root relaxation: objective 6.400000e+01, 127 iterations, 0.00 seconds

    Nodes    |    Current Node    |     Objective Bounds      |     Work
 Expl Unexpl |  Obj  Depth IntInf | Incumbent    BestBd   Gap | It/Node Time

     0     0   64.00000    0   44          -   64.00000      -     -    0s
     0     0   64.00000    0  110          -   64.00000      -     -    0s
     0     0   64.00000    0  110          -   64.00000      -     -    0s
     0     0   64.00000    0   54          -   64.00000      -     -    0s
H    0     0                    3774.6000000   64.00000  98.3%     -    0s
     0     0   64.00000    0   54 3774.60000   64.00000  98.3%     -    0s
H    0     0                     228.0000000   64.00000  71.9%     -    0s
H    0     2                     223.3000000   64.00000  71.3%     -    0s
     0     2   64.00000    0   46  223.30000   64.00000  71.3%     -    0s
H   29    56                     159.2000000   64.00000  59.8%  58.7    1s
H   30    56                     142.0000000   64.00000  54.9%  59.0    1s
H   36    56                     140.6000000   64.00000  54.5%  61.2    1s
H   49    56                     138.0000000   64.00000  53.6%  63.6    1s
H   55    56                     135.6000000   64.00000  52.8%  64.2    1s
H   89   120                     127.8000000   64.00000  49.9%  60.3    2s
H   91   120                     125.4000000   64.00000  49.0%  59.7    2s
H   92   120                     119.2000000   64.00000  46.3%  59.3    2s
H 4757  4929                     103.0000000   64.00000  37.9%  10.3    5s
H 4757  4904                      99.4000000   64.00000  35.6%  10.3    5s
H 4790  4895                      97.8000000   64.00000  34.6%  10.2    5s
H 4882  4894                      97.4000000   64.00000  34.3%  10.3    5s
H 5085  4894                      97.3000000   64.00000  34.2%  10.2    5s

Cutting planes:
  Gomory: 16
  Cover: 198
  Implied bound: 204
  Clique: 7
  MIR: 54
  Flow cover: 21
  Mod-K: 1
  RLT: 6
  Relax-and-lift: 52

Explored 5178 nodes (54096 simplex iterations) in 5.09 seconds
Thread count was 32 (of 32 available processors)

Solution count 10: 97.3 97.4 97.8 ... 138

Optimal solution found (tolerance 4.00e-01)
Best objective 9.730000000000e+01, best bound 6.400000000000e+01, gap 34.2240%

Gurobi 9.1.2 (linux64) logging started Wed Nov 24 11:41:22 2021

Changed value of parameter LogFile to lemke_square_v-(5, 7).log-s20-l10.log
   Prev:   Default: 
Changed value of parameter Threads to 32
   Prev: 0  Min: 0  Max: 1024  Default: 0
Changed value of parameter TimeLimit to 3600.0
   Prev: inf  Min: 0.0  Max: inf  Default: inf
Changed value of parameter MIPGap to 0.3
   Prev: 0.0001  Min: 0.0  Max: inf  Default: 0.0001
Warning: variable name "X[(7, 4),(7, 3)]" has a space
Warning: constraint name "flow-constr-t0-v(3, 0)" has a space
Warning: to let Gurobi read it back, use rlp format
Gurobi Optimizer version 9.1.2 build v9.1.2rc0 (linux64)
Thread count: 16 physical cores, 32 logical processors, using up to 32 threads
Optimize a model with 6013 rows, 5440 columns and 20670 nonzeros
Model fingerprint: 0x949f71f0
Variable types: 0 continuous, 5440 integer (4800 binary)
Coefficient statistics:
  Matrix range     [1e+00, 1e+03]
  Objective range  [1e-01, 1e-01]
  Bounds range     [1e+00, 5e+02]
  RHS range        [1e+00, 1e+03]
Presolve removed 547 rows and 580 columns
Presolve time: 0.04s
Presolved: 5466 rows, 4860 columns, 18150 nonzeros
Variable types: 0 continuous, 4860 integer (4220 binary)

Root relaxation: objective 6.400000e+01, 127 iterations, 0.00 seconds

    Nodes    |    Current Node    |     Objective Bounds      |     Work
 Expl Unexpl |  Obj  Depth IntInf | Incumbent    BestBd   Gap | It/Node Time

     0     0   64.00000    0   44          -   64.00000      -     -    0s
     0     0   64.00000    0  110          -   64.00000      -     -    0s
     0     0   64.00000    0  110          -   64.00000      -     -    0s
     0     0   64.00000    0   54          -   64.00000      -     -    0s
H    0     0                    3774.6000000   64.00000  98.3%     -    0s
     0     0   64.00000    0   54 3774.60000   64.00000  98.3%     -    0s
H    0     0                     228.0000000   64.00000  71.9%     -    0s
H    0     2                     223.3000000   64.00000  71.3%     -    0s
     0     2   64.00000    0   46  223.30000   64.00000  71.3%     -    0s
H   29    56                     159.2000000   64.00000  59.8%  58.7    1s
H   30    56                     142.0000000   64.00000  54.9%  59.0    1s
H   36    56                     140.6000000   64.00000  54.5%  61.2    1s
H   49    56                     138.0000000   64.00000  53.6%  63.6    1s
H   55    56                     135.6000000   64.00000  52.8%  64.2    1s
H   89   120                     127.8000000   64.00000  49.9%  60.3    2s
H   91   120                     125.4000000   64.00000  49.0%  59.7    2s
H   92   120                     119.2000000   64.00000  46.3%  59.3    2s
H 4757  4929                     103.0000000   64.00000  37.9%  10.3    4s
H 4757  4904                      99.4000000   64.00000  35.6%  10.3    4s
H 4790  4895                      97.8000000   64.00000  34.6%  10.2    4s
H 4882  4894                      97.4000000   64.00000  34.3%  10.3    4s
H 5085  4894                      97.3000000   64.00000  34.2%  10.2    4s
  5178  7058   64.00000  125  114   97.30000   64.00000  34.2%  10.1    5s
H12381 10972                      96.8000000   64.00000  33.9%   7.5    6s
H12381 10423                      91.4000000   64.00000  30.0%   7.5    6s

Cutting planes:
  Gomory: 2
  Cover: 24
  Implied bound: 26
  Projected implied bound: 5
  MIR: 13
  Flow cover: 10
  RLT: 8
  Relax-and-lift: 9

Explored 12381 nodes (96415 simplex iterations) in 6.92 seconds
Thread count was 32 (of 32 available processors)

Solution count 10: 91.4 96.8 97.3 ... 127.8

Optimal solution found (tolerance 3.00e-01)
Best objective 9.140000000000e+01, best bound 6.400000000000e+01, gap 29.9781%
